\ENCODING=ISO-8859-1
\Problem name: 

Minimize
 obj: x1 + x2 + x3 + x4 + x5 + x6 + x7 + x8 + x9 + x10 + x11 + x12 + x13 + x14
      + x15 + x16 + 2 x17 + 2 x18 + 2 x19 + 2 x20 + 2 x21 + 2 x22 + 2 x23
      + 2 x24 + 2 x25 + 2 x26 + 2 x27 + 2 x28 + 2 x29 + 2 x30 + 3 x31 + 3 x32
      + 3 x33 + 3 x34 + 3 x35 + 3 x36 + 3 x37 + 3 x38 + 4 x39 + 4 x40 + 4 x41
      + 4 x42 + 4 x43 + 4 x44 + 4 x45 + 4 x46 + 4 x47 + 4 x48 + 4 x49 + 4 x50
      + 4 x51 + 4 x52 + 5 x53 + 5 x54 + 5 x55 + 5 x56 + 5 x57 + 5 x58 + 5 x59
      + 5 x60 + 6 x61 + 6 x62 + 6 x63 + 6 x64 + 7 x65 + 7 x66 + 7 x67 + 7 x68
      + 7 x69 + 7 x70 + 7 x71 + 8 x72 + 8 x73 + 8 x74 + 8 x75 + 9 x76 + 9 x77
      + 9 x78 + 9 x79 + 9 x80 + 10 x81 + 10 x82 + 10 x83 + 10 x84 + 10 x85
      + 10 x86 + 11 x87 + 11 x88 + 11 x89 + 11 x90 + 11 x91 + 11 x92 + 11 x93
      + 11 x94 + 12 x95 + 12 x96 + 12 x97 + 12 x98 + 12 x99 + 12 x100 + 12 x101
      + 12 x102 + 13 x103 + 13 x104 + 13 x105 + 13 x106 + 13 x107 + 13 x108
      + 14 x109 + 14 x110 + 14 x111 + 14 x112 + 14 x113 + 14 x114 + 15 x115
      + 15 x116 + 15 x117 + 15 x118 + 15 x119 + 15 x120 + 15 x121 + 16 x122
      + 16 x123 + 16 x124 + 16 x125 + 16 x126 + 16 x127 + 16 x128 + 17 x129
      + 17 x130 + 17 x131 + 17 x132 + 18 x133 + 18 x134 + 18 x135 + 18 x136
      + 18 x137 + 18 x138 + 19 x139 + 19 x140 + 19 x141 + 19 x142 + 20 x143
      + 20 x144 + 20 x145 + 20 x146 + 21 x147 + 21 x148 + 22 x149 + 22 x150
      + 22 x151 + 22 x152 + 22 x153 + 22 x154 + 23 x155 + 23 x156 + 23 x157
      + 24 x158 + 24 x159 + 24 x160 + 24 x161 + 25 x162 + 26 x163 + 26 x164
      + 27 x165 + 28 x166 + 28 x167 + 28 x168 + 29 x169 + 29 x170 + 30 x171
      + 30 x172 + 30 x173 + 31 x174 + 32 x175 + 32 x176 + 33 x177 + 34 x178
      + 38 x179 + 38 x180 + 39 x181 + 41 x182 + 42 x183 + 45 x184 + 47 x185
      + 47 x186 + 49 x187 + 50 x188 + 60 x189
Subject To
 c1:   x30 + x63 + x72 + x106 + x116 + x126 + x174 + x175 + x189 >= 1
 c2:   x126 + x156 + x182 >= 1
 c3:   x36 + x41 + x56 + x70 + x95 + x99 >= 1
 c4:   x61 + x95 + x98 + x110 + x122 + x131 + x161 >= 1
 c5:   x84 + x96 + x105 + x118 + x134 + x145 >= 1
 c6:   x27 + x70 >= 1
 c7:   x66 + x101 + x103 >= 1
 c8:   x17 + x43 + x67 + x148 >= 1
 c9:   x47 + x81 + x187 + x189 >= 1
 c10:  x57 + x98 + x167 >= 1
 c11:  x44 + x98 + x115 + x135 + x139 + x150 >= 1
 c12:  x32 + x147 >= 1
 c13:  x16 + x72 + x120 >= 1
 c14:  x80 + x185 >= 1
 c15:  x21 + x44 + x116 + x144 + x179 >= 1
 c16:  x40 + x65 >= 1
 c17:  x8 + x63 + x110 >= 1
 c18:  x24 + x42 + x72 + x77 + x90 >= 1
 c19:  x1 + x23 + x62 + x106 + x172 >= 1
 c20:  x122 + x168 + x176 >= 1
 c21:  x8 + x31 + x61 + x103 + x119 + x181 + x188 >= 1
 c22:  x5 + x63 + x109 + x179 >= 1
 c23:  x15 + x42 + x55 + x151 >= 1
 c24:  x35 + x97 >= 1
 c25:  x54 + x83 + x114 + x176 + x183 + x184 >= 1
 c26:  x74 + x95 + x170 + x182 >= 1
 c27:  x25 + x73 + x77 + x99 + x119 >= 1
 c28:  x20 + x34 + x68 + x93 + x115 + x176 >= 1
 c29:  x1 + x28 + x122 >= 1
 c30:  x22 + x39 + x72 + x133 + x152 + x168 + x180 >= 1
 c31:  x65 + x100 + x115 + x140 + x181 + x186 >= 1
 c32:  x3 + x6 + x33 + x78 + x113 >= 1
 c33:  x1 + x8 + x94 + x137 >= 1
 c34:  x16 + x29 + x118 >= 1
 c35:  x19 + x21 + x26 + x103 + x168 >= 1
 c36:  x39 + x68 + x87 + x92 + x124 + x129 + x139 + x148 >= 1
 c37:  x10 + x27 + x71 + x147 >= 1
 c38:  x17 + x85 + x87 + x112 + x139 + x184 >= 1
 c39:  x75 + x92 + x98 + x150 + x151 + x153 >= 1
 c40:  x129 + x137 + x141 + x144 + x154 + x169 + x170 + x173 >= 1
 c41:  x59 + x104 + x176 + x182 >= 1
 c42:  x64 + x110 + x116 + x188 + x189 >= 1
 c43:  x99 + x101 + x106 + x165 + x176 + x189 >= 1
 c44:  x1 + x17 + x22 + x73 + x76 + x95 + x111 >= 1
 c45:  x17 + x81 + x116 >= 1
 c46:  x5 + x90 + x115 >= 1
 c47:  x100 + x171 >= 1
 c48:  x44 + x118 + x141 >= 1
 c49:  x45 + x54 + x83 + x135 >= 1
 c50:  x55 + x58 + x104 + x114 >= 1
 c51:  x32 + x41 + x155 + x171 >= 1
 c52:  x14 + x18 + x25 + x28 + x49 + x76 + x81 + x116 + x146 + x164 >= 1
 c53:  x37 + x67 + x131 + x134 >= 1
 c54:  x62 + x72 + x97 + x111 >= 1
 c55:  x66 + x124 + x140 + x163 + x164 + x165 >= 1
 c56:  x3 + x74 + x134 + x184 >= 1
 c57:  x88 + x187 >= 1
 c58:  x85 + x86 + x88 + x116 + x117 + x119 + x162 >= 1
 c59:  x19 + x102 + x103 + x155 + x160 + x164 >= 1
 c60:  x11 + x29 + x62 + x78 + x87 + x109 >= 1
 c61:  x109 + x110 + x123 + x127 + x177 >= 1
 c62:  x50 + x133 + x140 >= 1
 c63:  x38 + x53 + x65 + x77 + x113 + x117 + x132 >= 1
 c64:  x136 + x138 + x147 + x157 >= 1
 c65:  x6 + x27 + x40 + x69 >= 1
 c66:  x16 + x94 + x149 >= 1
 c67:  x56 + x59 + x138 + x171 + x179 >= 1
 c68:  x111 + x133 + x147 + x159 + x160 + x162 + x170 + x181 >= 1
 c69:  x7 + x20 + x31 + x67 + x124 + x155 + x184 + x187 >= 1
 c70:  x82 + x89 + x97 + x172 >= 1
 c71:  x10 + x40 >= 1
 c72:  x46 >= 1
 c73:  x1 + x12 + x23 + x34 + x65 + x67 + x88 + x109 + x133 >= 1
 c74:  x44 + x63 + x189 >= 1
 c75:  x7 + x39 + x55 + x130 + x145 >= 1
 c76:  x108 + x157 + x164 + x177 >= 1
 c77:  x3 + x89 + x93 + x98 >= 1
 c78:  x101 + x177 + x187 >= 1
 c79:  x7 + x14 >= 1
 c80:  x4 + x40 + x81 + x124 >= 1
 c81:  x86 + x102 + x175 >= 1
 c82:  x2 + x21 + x46 + x48 + x106 + x131 >= 1
 c83:  x17 + x33 + x38 + x171 >= 1
 c84:  x145 + x153 + x155 + x178 + x180 >= 1
 c85:  x99 + x103 + x133 + x175 >= 1
 c86:  x45 + x120 + x140 + x175 + x183 >= 1
 c87:  x35 + x139 >= 1
 c88:  x107 + x135 + x151 + x152 + x179 + x184 >= 1
 c89:  x69 + x93 + x109 + x123 + x164 + x171 >= 1
 c90:  x125 + x143 + x161 + x168 >= 1
 c91:  x4 + x31 + x121 >= 1
 c92:  x31 + x41 + x74 + x76 + x105 + x133 + x135 + x137 + x163 >= 1
 c93:  x42 + x100 + x110 + x118 >= 1
 c94:  x5 >= 1
 c95:  x4 + x39 + x95 + x103 + x168 + x178 + x182 >= 1
 c96:  x31 + x100 >= 1
 c97:  x73 + x92 + x149 >= 1
 c98:  x87 + x114 + x134 + x167 + x181 + x187 >= 1
 c99:  x43 + x124 >= 1
 c100: x18 + x26 + x47 + x139 + x166 >= 1
 c101: x6 + x31 + x69 + x148 >= 1
 c102: x82 + x97 + x123 + x149 >= 1
 c103: x19 + x48 + x58 + x68 + x90 + x91 >= 1
 c104: x61 + x65 + x79 + x144 + x150 + x156 >= 1
 c105: x5 + x7 + x26 + x27 + x53 + x57 + x175 >= 1
 c106: x20 + x104 + x127 >= 1
 c107: x9 + x125 >= 1
 c108: x105 + x113 + x126 + x163 + x172 >= 1
 c109: x3 + x169 >= 1
 c110: x60 + x71 + x104 + x112 + x158 + x166 + x169 >= 1
 c111: x22 + x39 + x64 + x66 + x143 >= 1
 c112: x146 + x180 + x182 >= 1
 c113: x10 + x143 + x185 >= 1
 c114: x2 + x14 + x39 + x62 >= 1
 c115: x2 + x17 + x32 + x37 + x84 + x136 + x155 + x163 >= 1
 c116: x183 + x185 + x186 + x188 >= 1
 c117: x4 + x89 + x96 >= 1
 c118: x52 + x129 + x147 >= 1
 c119: x33 + x105 + x187 >= 1
 c120: x1 + x40 + x41 + x60 + x111 >= 1
 c121: x50 + x53 + x116 + x157 >= 1
 c122: x2 + x9 + x51 + x76 + x184 >= 1
 c123: x10 + x72 + x77 + x117 >= 1
 c124: x6 + x24 + x40 + x89 + x119 >= 1
 c125: x9 + x18 + x189 >= 1
 c126: x15 + x25 + x56 + x146 + x182 >= 1
 c127: x82 + x105 + x115 + x128 + x169 + x171 >= 1
 c128: x34 + x109 + x115 + x134 + x167 >= 1
 c129: x32 + x88 + x104 >= 1
 c130: x18 + x81 + x153 >= 1
 c131: x2 + x18 + x137 >= 1
 c132: x159 + x167 + x173 + x174 + x184 + x189 >= 1
 c133: x51 + x79 + x125 + x132 + x188 >= 1
 c134: x76 + x122 + x160 + x169 + x179 >= 1
 c135: x20 + x122 + x125 >= 1
 c136: x70 + x83 + x142 + x158 + x169 >= 1
 c137: x2 + x118 + x136 + x178 >= 1
 c138: x21 + x26 + x97 + x139 + x142 >= 1
 c139: x13 + x32 + x76 + x158 + x181 >= 1
 c140: x11 + x17 + x30 + x48 + x140 >= 1
 c141: x13 + x36 + x67 + x69 + x83 + x92 + x165 >= 1
 c142: x35 + x61 + x128 + x143 >= 1
 c143: x42 + x164 + x188 >= 1
 c144: x9 + x65 + x117 + x158 >= 1
 c145: x36 + x41 + x153 + x166 >= 1
 c146: x13 + x49 + x54 + x79 + x103 + x174 >= 1
 c147: x47 + x77 + x118 + x138 >= 1
 c148: x8 + x54 + x78 + x143 + x158 >= 1
 c149: x12 + x61 + x66 + x115 + x123 >= 1
 c150: x43 + x115 + x136 + x185 + x187 >= 1
 c151: x50 + x116 + x150 >= 1
 c152: x74 + x165 + x174 + x189 >= 1
 c153: x3 + x34 + x151 + x174 >= 1
 c154: x29 + x62 + x154 + x155 >= 1
 c155: x24 + x37 + x73 + x101 + x150 >= 1
 c156: x68 + x91 + x93 + x107 + x108 + x166 + x172 >= 1
 c157: x1 + x39 + x61 + x181 >= 1
 c158: x56 + x120 + x123 + x176 >= 1
 c159: x24 + x58 + x104 + x154 >= 1
 c160: x57 + x139 + x165 >= 1
 c161: x25 + x91 + x117 + x123 + x139 >= 1
 c162: x38 >= 1
 c163: x23 + x45 >= 1
 c164: x30 + x55 + x123 + x125 + x147 >= 1
 c165: x49 + x54 + x179 + x189 >= 1
 c166: x55 + x67 >= 1
 c167: x109 + x120 + x122 + x130 >= 1
 c168: x46 + x158 + x175 + x184 >= 1
 c169: x106 + x150 >= 1
 c170: x132 + x142 + x148 + x158 + x178 >= 1
 c171: x75 + x95 + x187 >= 1
 c172: x57 + x66 + x71 + x127 + x149 + x152 + x163 + x167 + x179 >= 1
 c173: x18 + x33 + x89 + x113 + x149 >= 1
 c174: x39 + x59 + x128 + x145 + x158 + x179 >= 1
 c175: x21 + x62 + x87 + x110 >= 1
 c176: x68 + x70 + x96 + x134 >= 1
 c177: x43 + x81 + x82 >= 1
 c178: x1 + x6 + x69 + x144 + x156 + x170 >= 1
 c179: x85 + x90 + x106 + x121 + x163 + x166 + x174 >= 1
 c180: x2 + x7 + x84 + x163 >= 1
 c181: x12 + x102 + x117 + x158 >= 1
 c182: x19 + x65 + x156 >= 1
 c183: x81 + x91 + x94 + x130 + x161 + x167 >= 1
 c184: x79 + x96 + x112 + x121 + x129 + x152 >= 1
 c185: x19 + x66 + x81 + x104 + x122 >= 1
 c186: x20 + x53 + x68 >= 1
 c187: x5 + x19 + x103 + x122 + x180 >= 1
 c188: x63 + x78 + x96 + x141 + x189 >= 1
 c189: x15 + x22 >= 1
 c190: x66 + x135 + x181 >= 1
 c191: x47 + x119 + x149 + x151 >= 1
 c192: x11 + x112 + x159 + x183 >= 1
 c193: x28 + x42 + x46 + x129 + x155 + x160 >= 1
 c194: x53 + x73 + x133 + x162 + x185 >= 1
 c195: x4 + x17 + x48 + x53 + x90 >= 1
 c196: x130 + x157 + x166 >= 1
 c197: x23 + x154 >= 1
 c198: x17 + x105 + x159 + x162 >= 1
 c199: x78 + x88 + x131 + x169 >= 1
 c200: x3 + x28 + x45 + x159 >= 1
Bounds
 0 <= x1 <= 1
 0 <= x2 <= 1
 0 <= x3 <= 1
 0 <= x4 <= 1
 0 <= x5 <= 1
 0 <= x6 <= 1
 0 <= x7 <= 1
 0 <= x8 <= 1
 0 <= x9 <= 1
 0 <= x10 <= 1
 0 <= x11 <= 1
 0 <= x12 <= 1
 0 <= x13 <= 1
 0 <= x14 <= 1
 0 <= x15 <= 1
 0 <= x16 <= 1
 0 <= x17 <= 1
 0 <= x18 <= 1
 0 <= x19 <= 1
 0 <= x20 <= 1
 0 <= x21 <= 1
 0 <= x22 <= 1
 0 <= x23 <= 1
 0 <= x24 <= 1
 0 <= x25 <= 1
 0 <= x26 <= 1
 0 <= x27 <= 1
 0 <= x28 <= 1
 0 <= x29 <= 1
 0 <= x30 <= 1
 0 <= x31 <= 1
 0 <= x32 <= 1
 0 <= x33 <= 1
 0 <= x34 <= 1
 0 <= x35 <= 1
 0 <= x36 <= 1
 0 <= x37 <= 1
 0 <= x38 <= 1
 0 <= x39 <= 1
 0 <= x40 <= 1
 0 <= x41 <= 1
 0 <= x42 <= 1
 0 <= x43 <= 1
 0 <= x44 <= 1
 0 <= x45 <= 1
 0 <= x46 <= 1
 0 <= x47 <= 1
 0 <= x48 <= 1
 0 <= x49 <= 1
 0 <= x50 <= 1
 0 <= x51 <= 1
 0 <= x52 <= 1
 0 <= x53 <= 1
 0 <= x54 <= 1
 0 <= x55 <= 1
 0 <= x56 <= 1
 0 <= x57 <= 1
 0 <= x58 <= 1
 0 <= x59 <= 1
 0 <= x60 <= 1
 0 <= x61 <= 1
 0 <= x62 <= 1
 0 <= x63 <= 1
 0 <= x64 <= 1
 0 <= x65 <= 1
 0 <= x66 <= 1
 0 <= x67 <= 1
 0 <= x68 <= 1
 0 <= x69 <= 1
 0 <= x70 <= 1
 0 <= x71 <= 1
 0 <= x72 <= 1
 0 <= x73 <= 1
 0 <= x74 <= 1
 0 <= x75 <= 1
 0 <= x76 <= 1
 0 <= x77 <= 1
 0 <= x78 <= 1
 0 <= x79 <= 1
 0 <= x80 <= 1
 0 <= x81 <= 1
 0 <= x82 <= 1
 0 <= x83 <= 1
 0 <= x84 <= 1
 0 <= x85 <= 1
 0 <= x86 <= 1
 0 <= x87 <= 1
 0 <= x88 <= 1
 0 <= x89 <= 1
 0 <= x90 <= 1
 0 <= x91 <= 1
 0 <= x92 <= 1
 0 <= x93 <= 1
 0 <= x94 <= 1
 0 <= x95 <= 1
 0 <= x96 <= 1
 0 <= x97 <= 1
 0 <= x98 <= 1
 0 <= x99 <= 1
 0 <= x100 <= 1
 0 <= x101 <= 1
 0 <= x102 <= 1
 0 <= x103 <= 1
 0 <= x104 <= 1
 0 <= x105 <= 1
 0 <= x106 <= 1
 0 <= x107 <= 1
 0 <= x108 <= 1
 0 <= x109 <= 1
 0 <= x110 <= 1
 0 <= x111 <= 1
 0 <= x112 <= 1
 0 <= x113 <= 1
 0 <= x114 <= 1
 0 <= x115 <= 1
 0 <= x116 <= 1
 0 <= x117 <= 1
 0 <= x118 <= 1
 0 <= x119 <= 1
 0 <= x120 <= 1
 0 <= x121 <= 1
 0 <= x122 <= 1
 0 <= x123 <= 1
 0 <= x124 <= 1
 0 <= x125 <= 1
 0 <= x126 <= 1
 0 <= x127 <= 1
 0 <= x128 <= 1
 0 <= x129 <= 1
 0 <= x130 <= 1
 0 <= x131 <= 1
 0 <= x132 <= 1
 0 <= x133 <= 1
 0 <= x134 <= 1
 0 <= x135 <= 1
 0 <= x136 <= 1
 0 <= x137 <= 1
 0 <= x138 <= 1
 0 <= x139 <= 1
 0 <= x140 <= 1
 0 <= x141 <= 1
 0 <= x142 <= 1
 0 <= x143 <= 1
 0 <= x144 <= 1
 0 <= x145 <= 1
 0 <= x146 <= 1
 0 <= x147 <= 1
 0 <= x148 <= 1
 0 <= x149 <= 1
 0 <= x150 <= 1
 0 <= x151 <= 1
 0 <= x152 <= 1
 0 <= x153 <= 1
 0 <= x154 <= 1
 0 <= x155 <= 1
 0 <= x156 <= 1
 0 <= x157 <= 1
 0 <= x158 <= 1
 0 <= x159 <= 1
 0 <= x160 <= 1
 0 <= x161 <= 1
 0 <= x162 <= 1
 0 <= x163 <= 1
 0 <= x164 <= 1
 0 <= x165 <= 1
 0 <= x166 <= 1
 0 <= x167 <= 1
 0 <= x168 <= 1
 0 <= x169 <= 1
 0 <= x170 <= 1
 0 <= x171 <= 1
 0 <= x172 <= 1
 0 <= x173 <= 1
 0 <= x174 <= 1
 0 <= x175 <= 1
 0 <= x176 <= 1
 0 <= x177 <= 1
 0 <= x178 <= 1
 0 <= x179 <= 1
 0 <= x180 <= 1
 0 <= x181 <= 1
 0 <= x182 <= 1
 0 <= x183 <= 1
 0 <= x184 <= 1
 0 <= x185 <= 1
 0 <= x186 <= 1
 0 <= x187 <= 1
 0 <= x188 <= 1
 0 <= x189 <= 1
Binaries
 x1  x2  x3  x4  x5  x6  x7  x8  x9  x10  x11  x12  x13  x14  x15  x16  x17 
 x18  x19  x20  x21  x22  x23  x24  x25  x26  x27  x28  x29  x30  x31  x32 
 x33  x34  x35  x36  x37  x38  x39  x40  x41  x42  x43  x44  x45  x46  x47 
 x48  x49  x50  x51  x52  x53  x54  x55  x56  x57  x58  x59  x60  x61  x62 
 x63  x64  x65  x66  x67  x68  x69  x70  x71  x72  x73  x74  x75  x76  x77 
 x78  x79  x80  x81  x82  x83  x84  x85  x86  x87  x88  x89  x90  x91  x92 
 x93  x94  x95  x96  x97  x98  x99  x100  x101  x102  x103  x104  x105  x106 
 x107  x108  x109  x110  x111  x112  x113  x114  x115  x116  x117  x118  x119 
 x120  x121  x122  x123  x124  x125  x126  x127  x128  x129  x130  x131  x132 
 x133  x134  x135  x136  x137  x138  x139  x140  x141  x142  x143  x144  x145 
 x146  x147  x148  x149  x150  x151  x152  x153  x154  x155  x156  x157  x158 
 x159  x160  x161  x162  x163  x164  x165  x166  x167  x168  x169  x170  x171 
 x172  x173  x174  x175  x176  x177  x178  x179  x180  x181  x182  x183  x184 
 x185  x186  x187  x188  x189 
End
